data/lp_files/pEFS/37_5.lp
\ Model foo
\ LP format - for model browsing. Use MPS format to capture full model detail.
Minimize
  z
Subject To
 allocateEach[1]: x[1,1] + x[2,1] = 1
 allocateEach[2]: x[1,2] + x[2,2] = 1
 allocateEach[3]: x[1,3] + x[2,3] = 1
 allocateEach[4]: x[1,4] + x[2,4] = 1
 allocateEach[5]: x[1,5] + x[2,5] = 1
 allocateEach[6]: x[1,6] + x[2,6] = 1
 allocateEach[7]: x[1,7] + x[2,7] = 1
 allocateEach[8]: x[1,8] + x[2,8] = 1
 allocateEach[9]: x[1,9] + x[2,9] = 1
 allocateEach[10]: x[1,10] + x[2,10] = 1
 allocateEach[11]: x[1,11] + x[2,11] = 1
 allocateEach[12]: x[1,12] + x[2,12] = 1
 allocateEach[13]: x[1,13] + x[2,13] = 1
 allocateEach[14]: x[1,14] + x[2,14] = 1
 allocateEach[15]: x[1,15] + x[2,15] = 1
 allocateEach[16]: x[1,16] + x[2,16] = 1
 allocateEach[17]: x[1,17] + x[2,17] = 1
 allocateAllCash: cashProportion[1] + cashProportion[2] = 1
 findWorstP[1,2]: z + 0.0314287510214344 cashProportion[1]
   - 0.0314287510214344 cashProportion[2] + 0.0259601483437048 x[1,1]
   + 0.0202191631571228 x[1,2] + 0.0753766211997402 x[1,3]
   + 0.0107905378506925 x[1,4] + 0.0388668887631739 x[1,5]
   + 0.1045110733966099 x[1,6] + 0.0844804827456157 x[1,7]
   + 8.5905252791920717e-04 x[1,8] + 0.00537431642466528 x[1,9]
   + 0.0237915645232258 x[1,10] + 0.0855804890313659 x[1,11]
   + 0.0743289961656924 x[1,12] + 0.0980577031868754 x[1,13]
   + 0.098927231965135 x[1,14] + 0.0969472206507847 x[1,15]
   + 0.082186183921051 x[1,16] + 0.0423135751251912 x[1,17]
   - 0.0259601483437048 x[2,1] - 0.0202191631571228 x[2,2]
   - 0.0753766211997402 x[2,3] - 0.0107905378506925 x[2,4]
   - 0.0388668887631739 x[2,5] - 0.1045110733966099 x[2,6]
   - 0.0844804827456157 x[2,7] - 8.5905252791920717e-04 x[2,8]
   - 0.00537431642466528 x[2,9] - 0.0237915645232258 x[2,10]
   - 0.0855804890313659 x[2,11] - 0.0743289961656924 x[2,12]
   - 0.0980577031868754 x[2,13] - 0.098927231965135 x[2,14]
   - 0.0969472206507847 x[2,15] - 0.082186183921051 x[2,16]
   - 0.0423135751251912 x[2,17] >= 0
 findWorstP[2,1]: z - 0.0355231374034955 cashProportion[1]
   + 0.0355231374034955 cashProportion[2] - 0.0511059536778288 x[1,1]
   - 0.0945152275849003 x[1,2] - 0.0617747359446786 x[1,3]
   - 0.0487851087008005 x[1,4] - 0.1019750864396343 x[1,5]
   - 0.0407568796476105 x[1,6] - 0.0451499076398428 x[1,7]
   - 0.0718277838298679 x[1,8] - 0.0757353289442523 x[1,9]
   - 0.0521598067541325 x[1,10] - 0.1106545730118884 x[1,11]
   - 0.0233268602282954 x[1,12] - 0.0502060341969403 x[1,13]
   - 0.0651257519064084 x[1,14] - 0.0244517595794061 x[1,15]
   - 0.0281224837777673 x[1,16] - 0.0188035807322503 x[1,17]
   + 0.0511059536778288 x[2,1] + 0.0945152275849003 x[2,2]
   + 0.0617747359446786 x[2,3] + 0.0487851087008005 x[2,4]
   + 0.1019750864396343 x[2,5] + 0.0407568796476105 x[2,6]
   + 0.0451499076398428 x[2,7] + 0.0718277838298679 x[2,8]
   + 0.0757353289442523 x[2,9] + 0.0521598067541325 x[2,10]
   + 0.1106545730118884 x[2,11] + 0.0233268602282954 x[2,12]
   + 0.0502060341969403 x[2,13] + 0.0651257519064084 x[2,14]
   + 0.0244517595794061 x[2,15] + 0.0281224837777673 x[2,16]
   + 0.0188035807322503 x[2,17] >= 0
Bounds
 z <= 1
 -infinity <= cashProportion[1] <= 1
 -infinity <= cashProportion[2] <= 1
Binaries
 x[1,1] x[1,2] x[1,3] x[1,4] x[1,5] x[1,6] x[1,7] x[1,8] x[1,9] x[1,10]
 x[1,11] x[1,12] x[1,13] x[1,14] x[1,15] x[1,16] x[1,17] x[2,1] x[2,2]
 x[2,3] x[2,4] x[2,5] x[2,6] x[2,7] x[2,8] x[2,9] x[2,10] x[2,11] x[2,12]
 x[2,13] x[2,14] x[2,15] x[2,16] x[2,17]
End
