data/mps_files/q3/37_5.mps
NAME foo
ROWS
 N  OBJ
 E  allocateEach[1]
 E  allocateEach[2]
 E  allocateEach[3]
 E  allocateEach[4]
 E  allocateEach[5]
 E  allocateEach[6]
 E  allocateEach[7]
 E  allocateEach[8]
 E  allocateEach[9]
 E  allocateEach[10]
 E  allocateEach[11]
 E  allocateEach[12]
 E  allocateEach[13]
 E  allocateEach[14]
 E  allocateEach[15]
 E  allocateEach[16]
 E  allocateEach[17]
 E  allocateAllCash
 G  findWorstP[1,2]
 G  findWorstP[2,1]
COLUMNS
    z         OBJ       1
    z         findWorstP[1,2]  1
    z         findWorstP[2,1]  1
    cashProportion[1]  allocateAllCash  1
    cashProportion[1]  findWorstP[1,2]  3.1428751021434408e-02
    cashProportion[1]  findWorstP[2,1]  -3.5523137403495476e-02
    cashProportion[2]  allocateAllCash  1
    cashProportion[2]  findWorstP[1,2]  -3.1428751021434408e-02
    cashProportion[2]  findWorstP[2,1]  3.5523137403495476e-02
    MARKER    'MARKER'                 'INTORG'
    x[1,1]    allocateEach[1]  1
    x[1,1]    findWorstP[1,2]  2.5960148343704820e-02
    x[1,1]    findWorstP[2,1]  -5.1105953677828823e-02
    x[1,2]    allocateEach[2]  1
    x[1,2]    findWorstP[1,2]  2.0219163157122803e-02
    x[1,2]    findWorstP[2,1]  -0.0945152275849003
    x[1,3]    allocateEach[3]  1
    x[1,3]    findWorstP[1,2]  7.5376621199740187e-02
    x[1,3]    findWorstP[2,1]  -6.1774735944678645e-02
    x[1,4]    allocateEach[4]  1
    x[1,4]    findWorstP[1,2]  1.0790537850692479e-02
    x[1,4]    findWorstP[2,1]  -4.8785108700800453e-02
    x[1,5]    allocateEach[5]  1
    x[1,5]    findWorstP[1,2]  3.8866888763173880e-02
    x[1,5]    findWorstP[2,1]  -1.0197508643963435e-01
    x[1,6]    allocateEach[6]  1
    x[1,6]    findWorstP[1,2]  1.0451107339660988e-01
    x[1,6]    findWorstP[2,1]  -4.0756879647610482e-02
    x[1,7]    allocateEach[7]  1
    x[1,7]    findWorstP[1,2]  8.4480482745615690e-02
    x[1,7]    findWorstP[2,1]  -4.5149907639842751e-02
    x[1,8]    allocateEach[8]  1
    x[1,8]    findWorstP[1,2]  8.5905252791920717e-04
    x[1,8]    findWorstP[2,1]  -7.1827783829867861e-02
    x[1,9]    allocateEach[9]  1
    x[1,9]    findWorstP[1,2]  5.3743164246652835e-03
    x[1,9]    findWorstP[2,1]  -7.5735328944252348e-02
    x[1,10]   allocateEach[10]  1
    x[1,10]   findWorstP[1,2]  2.3791564523225846e-02
    x[1,10]   findWorstP[2,1]  -5.2159806754132530e-02
    x[1,11]   allocateEach[11]  1
    x[1,11]   findWorstP[1,2]  8.5580489031365878e-02
    x[1,11]   findWorstP[2,1]  -1.1065457301188841e-01
    x[1,12]   allocateEach[12]  1
    x[1,12]   findWorstP[1,2]  7.4328996165692371e-02
    x[1,12]   findWorstP[2,1]  -2.3326860228295363e-02
    x[1,13]   allocateEach[13]  1
    x[1,13]   findWorstP[1,2]  9.8057703186875358e-02
    x[1,13]   findWorstP[2,1]  -5.0206034196940273e-02
    x[1,14]   allocateEach[14]  1
    x[1,14]   findWorstP[1,2]  9.8927231965135032e-02
    x[1,14]   findWorstP[2,1]  -6.5125751906408375e-02
    x[1,15]   allocateEach[15]  1
    x[1,15]   findWorstP[1,2]  9.6947220650784663e-02
    x[1,15]   findWorstP[2,1]  -2.4451759579406051e-02
    x[1,16]   allocateEach[16]  1
    x[1,16]   findWorstP[1,2]  8.2186183921050968e-02
    x[1,16]   findWorstP[2,1]  -2.8122483777767254e-02
    x[1,17]   allocateEach[17]  1
    x[1,17]   findWorstP[1,2]  4.2313575125191190e-02
    x[1,17]   findWorstP[2,1]  -1.8803580732250271e-02
    x[2,1]    allocateEach[1]  1
    x[2,1]    findWorstP[1,2]  -2.5960148343704820e-02
    x[2,1]    findWorstP[2,1]  5.1105953677828823e-02
    x[2,2]    allocateEach[2]  1
    x[2,2]    findWorstP[1,2]  -2.0219163157122803e-02
    x[2,2]    findWorstP[2,1]  0.0945152275849003
    x[2,3]    allocateEach[3]  1
    x[2,3]    findWorstP[1,2]  -7.5376621199740187e-02
    x[2,3]    findWorstP[2,1]  6.1774735944678645e-02
    x[2,4]    allocateEach[4]  1
    x[2,4]    findWorstP[1,2]  -1.0790537850692479e-02
    x[2,4]    findWorstP[2,1]  4.8785108700800453e-02
    x[2,5]    allocateEach[5]  1
    x[2,5]    findWorstP[1,2]  -3.8866888763173880e-02
    x[2,5]    findWorstP[2,1]  1.0197508643963435e-01
    x[2,6]    allocateEach[6]  1
    x[2,6]    findWorstP[1,2]  -1.0451107339660988e-01
    x[2,6]    findWorstP[2,1]  4.0756879647610482e-02
    x[2,7]    allocateEach[7]  1
    x[2,7]    findWorstP[1,2]  -8.4480482745615690e-02
    x[2,7]    findWorstP[2,1]  4.5149907639842751e-02
    x[2,8]    allocateEach[8]  1
    x[2,8]    findWorstP[1,2]  -8.5905252791920717e-04
    x[2,8]    findWorstP[2,1]  7.1827783829867861e-02
    x[2,9]    allocateEach[9]  1
    x[2,9]    findWorstP[1,2]  -5.3743164246652835e-03
    x[2,9]    findWorstP[2,1]  7.5735328944252348e-02
    x[2,10]   allocateEach[10]  1
    x[2,10]   findWorstP[1,2]  -2.3791564523225846e-02
    x[2,10]   findWorstP[2,1]  5.2159806754132530e-02
    x[2,11]   allocateEach[11]  1
    x[2,11]   findWorstP[1,2]  -8.5580489031365878e-02
    x[2,11]   findWorstP[2,1]  1.1065457301188841e-01
    x[2,12]   allocateEach[12]  1
    x[2,12]   findWorstP[1,2]  -7.4328996165692371e-02
    x[2,12]   findWorstP[2,1]  2.3326860228295363e-02
    x[2,13]   allocateEach[13]  1
    x[2,13]   findWorstP[1,2]  -9.8057703186875358e-02
    x[2,13]   findWorstP[2,1]  5.0206034196940273e-02
    x[2,14]   allocateEach[14]  1
    x[2,14]   findWorstP[1,2]  -9.8927231965135032e-02
    x[2,14]   findWorstP[2,1]  6.5125751906408375e-02
    x[2,15]   allocateEach[15]  1
    x[2,15]   findWorstP[1,2]  -9.6947220650784663e-02
    x[2,15]   findWorstP[2,1]  2.4451759579406051e-02
    x[2,16]   allocateEach[16]  1
    x[2,16]   findWorstP[1,2]  -8.2186183921050968e-02
    x[2,16]   findWorstP[2,1]  2.8122483777767254e-02
    x[2,17]   allocateEach[17]  1
    x[2,17]   findWorstP[1,2]  -4.2313575125191190e-02
    x[2,17]   findWorstP[2,1]  1.8803580732250271e-02
    MARKER    'MARKER'                 'INTEND'
RHS
    RHS1      allocateEach[1]  1
    RHS1      allocateEach[2]  1
    RHS1      allocateEach[3]  1
    RHS1      allocateEach[4]  1
    RHS1      allocateEach[5]  1
    RHS1      allocateEach[6]  1
    RHS1      allocateEach[7]  1
    RHS1      allocateEach[8]  1
    RHS1      allocateEach[9]  1
    RHS1      allocateEach[10]  1
    RHS1      allocateEach[11]  1
    RHS1      allocateEach[12]  1
    RHS1      allocateEach[13]  1
    RHS1      allocateEach[14]  1
    RHS1      allocateEach[15]  1
    RHS1      allocateEach[16]  1
    RHS1      allocateEach[17]  1
    RHS1      allocateAllCash  1
BOUNDS
 UP BND1      z         1
 MI BND1      cashProportion[1]
 UP BND1      cashProportion[1]  1
 MI BND1      cashProportion[2]
 UP BND1      cashProportion[2]  1
 BV BND1      x[1,1]  
 BV BND1      x[1,2]  
 BV BND1      x[1,3]  
 BV BND1      x[1,4]  
 BV BND1      x[1,5]  
 BV BND1      x[1,6]  
 BV BND1      x[1,7]  
 BV BND1      x[1,8]  
 BV BND1      x[1,9]  
 BV BND1      x[1,10] 
 BV BND1      x[1,11] 
 BV BND1      x[1,12] 
 BV BND1      x[1,13] 
 BV BND1      x[1,14] 
 BV BND1      x[1,15] 
 BV BND1      x[1,16] 
 BV BND1      x[1,17] 
 BV BND1      x[2,1]  
 BV BND1      x[2,2]  
 BV BND1      x[2,3]  
 BV BND1      x[2,4]  
 BV BND1      x[2,5]  
 BV BND1      x[2,6]  
 BV BND1      x[2,7]  
 BV BND1      x[2,8]  
 BV BND1      x[2,9]  
 BV BND1      x[2,10] 
 BV BND1      x[2,11] 
 BV BND1      x[2,12] 
 BV BND1      x[2,13] 
 BV BND1      x[2,14] 
 BV BND1      x[2,15] 
 BV BND1      x[2,16] 
 BV BND1      x[2,17] 
ENDATA
